expected_failures_A=120;
expected_failures_B=118;
expected_failures_C=65;
s=3;
hints=[|
0,0,4,0,5,0,9,0,0|
0,0,0,0,7,0,0,0,6|
3,7,0,0,0,0,0,0,2|
0,0,9,5,0,0,0,8,0|
0,0,1,2,0,4,3,0,0|
0,6,0,0,0,9,2,0,0|
2,0,0,0,0,0,0,9,3|
1,0,0,0,4,0,0,0,0|
0,0,6,0,2,0,7,0,0|];
